c SAT Generator for power-law distributed variable frequencies
c -g u -v 20 -c 91 -k 3 -p 2.750000 -b 3.200000 -f /home/schmidt/Devel/ni-kop-sat/data/ensemble/ruf20-91/ruf20-91-349 -u 1 -U 1 -s 3379165629
p cnf 20 91
-7 10 16 0
8 15 20 0
-3 18 -19 0
8 -13 -17 0
5 13 -18 0
-4 14 -18 0
-11 -13 18 0
-5 11 -15 0
9 -10 -13 0
-3 -19 -20 0
-8 -19 20 0
-9 -15 18 0
-7 8 12 0
-11 -15 16 0
-5 17 -18 0
-4 -6 -11 0
-13 -15 20 0
8 10 -14 0
14 16 17 0
2 -3 -19 0
16 -17 19 0
10 11 -19 0
12 -17 18 0
-1 -2 -3 0
-10 12 13 0
-7 -11 -13 0
2 5 -19 0
1 14 20 0
13 14 17 0
2 -9 -15 0
3 9 -10 0
3 5 -17 0
-1 14 19 0
-3 -4 -20 0
-7 8 18 0
-1 -3 -17 0
3 -12 -17 0
-1 3 6 0
-1 -7 17 0
13 15 17 0
1 -9 13 0
6 12 -19 0
-7 8 11 0
4 12 -20 0
-10 -14 -20 0
1 -10 20 0
6 -13 18 0
9 15 -18 0
-3 -8 -12 0
-7 18 20 0
-4 18 -20 0
10 14 16 0
12 13 -14 0
-1 10 17 0
-2 -8 11 0
7 -8 -14 0
-2 -10 -16 0
1 -4 7 0
-1 7 -17 0
-6 8 16 0
-7 17 -18 0
-7 -8 14 0
-9 14 17 0
16 -18 19 0
-2 6 18 0
-3 4 -5 0
4 19 20 0
1 5 -10 0
6 12 -18 0
2 -9 -11 0
-1 -8 -18 0
-7 11 -19 0
-10 11 -14 0
-10 14 15 0
4 15 -17 0
-5 -9 -17 0
3 -9 -19 0
-5 9 20 0
2 10 -16 0
-7 -12 -20 0
-1 4 -12 0
-15 -18 20 0
-1 3 8 0
12 -13 -18 0
4 -6 -18 0
-7 -9 19 0
6 13 -19 0
4 11 -15 0
12 13 14 0
-11 15 -18 0
9 -14 -16 0
